NComp = 6;
NAlone = 1;
NFlow = 5;
NMoisLocation = 1;
NConcurrence = 2;

CompOs = [|0,0,0,0,1,1,1,1,0,|
          0,0,0,0,1,1,1,1,0,|
          0,0,0,0,1,1,1,1,0,|
          0,0,0,0,1,1,1,1,0,|
          0,0,0,0,1,1,1,1,0,|
          1,0,0,0,0,0,0,0,0,|];
          
CompLoc = [|1,1,0,1,1,0,0,0,0,1,|
            1,1,0,1,1,0,0,0,0,1,|
            1,1,0,1,1,0,0,0,0,1,|
            1,1,0,1,1,0,0,0,0,1,|
            1,1,0,1,1,0,0,0,0,1,|
            0,0,1,0,0,0,0,0,0,0,|];
            
CompMem = [16,16,8,8,16,8];
CompProc = [8,8,4,4,8,4];

CompAlone = [4];
CompFlow = [|1,3,|2,3,|1,5,|5,6,|6,5,|];
CompConcurrence = [|1,2|3,5,|];